p wcnf 176 88 89 
1 102 -20 0 
1 41 148 0 
1 17 98 0 
1 -94 -54 0 
1 146 29 0 
1 -5 155 0 
1 -42 -90 0 
1 66 -119 0 
1 24 -88 0 
1 12 43 0 
1 138 47 0 
1 -129 117 0 
1 89 -128 0 
1 -167 158 0 
1 -10 -27 0 
1 -24 -146 0 
1 38 -22 0 
1 -22 -127 0 
1 -43 -172 0 
1 -61 -19 0 
1 -30 -8 0 
1 154 -20 0 
1 -56 169 0 
1 -33 102 0 
1 34 -172 0 
1 -127 105 0 
1 157 130 0 
1 171 26 0 
1 168 -33 0 
1 -94 115 0 
1 127 15 0 
1 94 -73 0 
1 -171 -125 0 
1 99 -113 0 
1 -50 45 0 
1 -134 156 0 
1 11 168 0 
1 167 58 0 
1 12 33 0 
1 -104 -91 0 
1 104 29 0 
1 87 21 0 
1 153 175 0 
1 -69 -76 0 
1 -176 -165 0 
1 55 -161 0 
1 33 10 0 
1 27 43 0 
1 -156 25 0 
1 -8 162 0 
1 134 150 0 
1 68 -176 0 
1 -132 -149 0 
1 69 -100 0 
1 7 128 0 
1 138 -75 0 
1 12 51 0 
1 -21 -34 0 
1 -110 129 0 
1 -149 -59 0 
1 130 -148 0 
1 138 19 0 
1 -118 -113 0 
1 -55 117 0 
1 146 38 0 
1 -49 -162 0 
1 -88 -174 0 
1 -75 152 0 
1 -120 -103 0 
1 111 110 0 
1 104 30 0 
1 164 -168 0 
1 13 37 0 
1 -54 -168 0 
1 35 120 0 
1 -39 145 0 
1 -21 -162 0 
1 -138 -154 0 
1 62 -141 0 
1 172 73 0 
1 -37 -118 0 
1 -171 -112 0 
1 -111 -130 0 
1 -41 88 0 
1 131 -51 0 
1 60 -176 0 
1 -30 -112 0 
1 -12 169 0 
